p cnf 33 150
-1 -2 0
-1 -3 0
-1 -4 0
-1 -5 0
-2 -3 0
-2 -4 0
-2 -5 0
-3 -4 0
-3 -5 0
-4 -5 0
1 2 3 4 5 0
-6 -7 0
-6 -8 0
-6 -9 0
-6 -10 0
-6 -11 0
-7 -8 0
-7 -9 0
-7 -10 0
-7 -11 0
-8 -9 0
-8 -10 0
-8 -11 0
-9 -10 0
-9 -11 0
-10 -11 0
6 7 8 9 10 11 0
-12 -13 0
-12 -14 0
-12 -15 0
-13 -14 0
-13 -15 0
-14 -15 0
12 13 14 15 0
-1 -6 0
-1 -12 0
-1 -16 0
-1 -17 0
-6 -12 0
-6 -16 0
-6 -17 0
-12 -16 0
-12 -17 0
-16 -17 0
1 6 12 16 17 0
-16 -18 0
-16 -19 0
-16 -20 0
-16 -21 0
-16 -22 0
-18 -19 0
-18 -20 0
-18 -21 0
-18 -22 0
-19 -20 0
-19 -21 0
-19 -22 0
-20 -21 0
-20 -22 0
-21 -22 0
16 18 19 20 21 22 0
-7 -13 0
-7 -18 0
-7 -23 0
-7 -24 0
-13 -18 0
-13 -23 0
-13 -24 0
-18 -23 0
-18 -24 0
-23 -24 0
7 13 18 23 24 0
-2 -8 0
-2 -23 0
-2 -25 0
-2 -26 0
-2 -27 0
-8 -23 0
-8 -25 0
-8 -26 0
-8 -27 0
-23 -25 0
-23 -26 0
-23 -27 0
-25 -26 0
-25 -27 0
-26 -27 0
2 8 23 25 26 27 0
-9 -17 0
-9 -19 0
-9 -25 0
-9 -28 0
-9 -29 0
-17 -19 0
-17 -25 0
-17 -28 0
-17 -29 0
-19 -25 0
-19 -28 0
-19 -29 0
-25 -28 0
-25 -29 0
-28 -29 0
9 17 19 25 28 29 0
-10 -20 0
-10 -26 0
-10 -30 0
-10 -31 0
-20 -26 0
-20 -30 0
-20 -31 0
-26 -30 0
-26 -31 0
-30 -31 0
10 20 26 30 31 0
-11 -14 0
-11 -21 0
-11 -28 0
-11 -32 0
-11 -33 0
-14 -21 0
-14 -28 0
-14 -32 0
-14 -33 0
-21 -28 0
-21 -32 0
-21 -33 0
-28 -32 0
-28 -33 0
-32 -33 0
11 14 21 28 32 33 0
-3 -29 0
3 29 0
-4 -24 0
4 24 0
-15 -22 0
-15 -27 0
-15 -30 0
-15 -32 0
-22 -27 0
-22 -30 0
-22 -32 0
-27 -30 0
-27 -32 0
-30 -32 0
15 22 27 30 32 0
-5 -31 0
-5 -33 0
-31 -33 0
5 31 33 0
